\ This file has been generated by DOcplex
\ ENCODING=ISO-8859-1
\Problem name: Orandom27242_6.lp

Minimize
 obj: - 32.000000866201 x0 - 16.000000433100 x1 - 8.000000216550 x2
      - 24.000000866201 x3 - 12.000000433100 x4 - 6.000000216550 x5 + [
      16.000000494972 x0^2 + 16.000000494972 x0*x1 + 8.000000247486 x0*x2
      + 32.000000989944 x0*x3 + 16.000000494972 x0*x4 + 8.000000247486 x0*x5
      + 4.000000123743 x1^2 + 4.000000123743 x1*x2 + 16.000000494972 x1*x3
      + 8.000000247486 x1*x4 + 4.000000123743 x1*x5 + 1.000000030936 x2^2
      + 8.000000247486 x2*x3 + 4.000000123743 x2*x4 + 2.000000061871 x2*x5
      + 80.000000494972 x3^2 + 80.000000494972 x3*x4 + 40.000000247486 x3*x5
      + 20.000000123743 x4^2 + 20.000000123743 x4*x5 + 5.000000030936 x5^2 ]/2 +
      24.500000757926
Subject To

Bounds
 0 <= x0 <= 1
 0 <= x1 <= 1
 0 <= x2 <= 1
 0 <= x3 <= 1
 0 <= x4 <= 1
 0 <= x5 <= 1

Binaries
 x0 x1 x2 x3 x4 x5
End
